%chk=cp.chk
#p B97D3/def2TZVP opt freq=noraman nosymm int=ultrafine scrf=(SMD,solvent=SLVT)

Title

CH MU
COORD


