%chk=cp.chk
#p m062x/def2TZVP opt freq=noraman nosymm int=ultrafine scrf=(SMD,solvent=SLVT)

Title

CH MU
COORD


