%chk=cp.chk
#p m06/def2TZVP opt freq=noraman nosymm int=ultrafine scrf=(SMD,solvent=SLVT)

Title

CH MU
COORD


