%chk=cp.chk
#p PBEPBE/def2TZVP opt freq=noraman nosymm int=ultrafine scrf=(SMD,solvent=SLVT) EmpiricalDispersion=GD3BJ

Title

CH MU
COORD


